<number of tasks>
20


<number of equipment>
5


<cycle time>
1000


<investment costs>
1,13423
2,16389
3,12128
4,10196
5,24545


<task times>
1,-1,-1,221,295,119
2,373,386,-1,418,-1
3,262,283,-1,320,-1
4,408,377,-1,474,-1
5,-1,271,366,-1,-1
6,-1,-1,304,386,141
7,303,175,-1,349,-1
8,264,286,-1,298,-1
9,349,323,-1,396,-1
10,308,290,-1,351,-1
11,342,285,-1,399,-1
12,-1,-1,346,306,141
13,333,291,-1,317,-1
14,-1,235,332,-1,-1
15,-1,-1,343,306,218
16,-1,-1,220,222,133
17,-1,-1,368,333,233
18,122,290,-1,363,-1
19,-1,-1,330,361,150
20,-1,262,256,-1,-1


<precedence relations>
1,5
1,6
2,8
3,6
3,7
3,8
4,17
5,11
6,10
6,11
7,13
8,9
9,13
10,16
11,12
11,14
12,15
13,16
14,15
14,16
15,20
16,17
16,18
16,19


<task types>
1,2
2,3
3,3
4,3
5,1
6,2
7,3
8,3
9,3
10,3
11,3
12,2
13,3
14,1
15,2
16,2
17,2
18,3
19,2
20,1


<line depot>
1,1
2,1
3,1
4,7
5,0


<processing costs>
1,7200
2,14400
3,14400
4,14400
5,7200


<saving costs>
1,1342
2,1638
3,1212
4,1019
5,2454


<end>
